(set-logic QF_SLID_LC)

(declare-sort RefSll_t 0)

(declare-fun next() (Field RefSll_t RefSll_t))

(define-fun ls ((in RefSll_t) (out RefSll_t)) Space (tospace
    (or (and  (= in out) (tobool emp) )
        (exists ((u RefSll_t))
            (and (tobool (ssep (pto in (ref next u)) (ls u out ) )) )
)  ) ) )

;; variables
(declare-fun x0() RefSll_t)
(declare-fun x1() RefSll_t)
(declare-fun x2() RefSll_t)
(declare-fun x3() RefSll_t)
(declare-fun x4() RefSll_t)
(declare-fun x5() RefSll_t)
(declare-fun x6() RefSll_t)
(declare-fun x7() RefSll_t)
(declare-fun x8() RefSll_t)
(declare-fun x9() RefSll_t)
(declare-fun x10() RefSll_t)
(declare-fun x11() RefSll_t)
(declare-fun x12() RefSll_t)
(declare-fun x13() RefSll_t)
(declare-fun x14() RefSll_t)
(declare-fun x15() RefSll_t)
(declare-fun x16() RefSll_t)
(declare-fun x17() RefSll_t)
(declare-fun x18() RefSll_t)
(declare-fun x19() RefSll_t)
(declare-fun x20() RefSll_t)
(declare-fun x21() RefSll_t)

(assert 
		(and 

			(distinct x11 x16)
			(distinct x7 x9)
			(distinct x7 x15)
			(distinct x7 x14)
			(distinct x9 x10)
			(distinct x2 x11)
			(distinct x2 x3)
			(distinct x14 x17)
			(distinct x15 x17)
			(distinct x8 x9)
			(distinct x8 x17)
			(distinct x4 x11)
			(distinct x1 x11)
			(distinct x10 x13)
			(distinct x10 x15)
			(distinct x13 x15)
			(distinct x5 x17)
		(tobool (ssep 
			(ls x5 x4 )
			(ls x5 x8 )
			(ls x13 x16 )
			(ls x16 x17 )
			(ls x16 x8 )
			(ls x1 x17 )
			(ls x4 x11 )
			(ls x8 x17 )
			(ls x17 x9 )
			(ls x2 x13 )
			(ls x2 x4 )
			(ls x12 x17 )
			(ls x9 x8 )
			(ls x11 x15 )
			(ls x6 x8 )
		)

		)

) )

(check-sat)
;   unsat